28359.99,46.06,50.72
27122.52,48.16,53.03
29795.23,43.84,48.28
32990.34,39.59,43.6
25853.5,50.52,55.64
27589.66,47.34,52.14
29750.56,43.9,48.35
27904.7,46.81,51.55
29113.11,44.87,49.41
32303.89,40.43,44.53
26961.9,48.45,53.35
32566.22,40.11,44.17
32626.84,40.03,44.09
30886.25,42.29,46.57
29151.82,44.81,49.34
24276.7,53.8,59.25
32190.88,40.58,44.69
27260.13,47.92,52.77
29625.81,44.09,48.55
29119.68,44.86,49.4
